NAME : n60w140.002.647.tour
COMMENT : Length = 647
COMMENT : Found by LKH [Keld Helsgaun] Tue May  2 05:47:33 2017
TYPE : TOUR
DIMENSION : 61
TOUR_SECTION
1
11
31
48
22
32
20
16
42
17
56
19
43
59
13
37
3
45
18
4
36
30
7
33
10
40
38
26
35
47
57
14
8
9
28
52
29
21
24
15
54
46
5
39
58
51
44
60
55
34
49
2
41
23
50
25
27
53
12
61
6
-1
EOF
